40
2 0 2
3 0 2
4 2 7
4 3 9
5 0 9
5 1 1
6 0 10
6 1 4
6 2 6
7 0 8
7 1 4
8 0 7
8 1 1
8 3 3
8 5 9
8 6 6
9 1 5
9 2 9
9 5 2
9 8 2
10 1 1
10 3 4
10 4 9
10 5 4
10 6 7
10 7 6
11 0 5
11 4 5
11 5 8
11 7 8
11 8 1
11 9 3
11 10 6
12 1 10
12 4 3
12 6 9
12 9 10
13 4 10
13 5 5
13 6 6
13 7 4
13 11 10
14 2 8
14 3 1
14 5 3
14 7 1
14 9 5
14 11 7
14 12 8
15 1 6
15 6 8
15 7 4
15 8 9
15 9 4
15 10 3
15 14 7
16 1 2
16 2 8
16 3 1
16 5 6
16 6 6
16 8 5
16 10 2
16 14 3
16 15 5
17 0 4
17 2 8
17 7 8
17 12 3
17 13 2
17 15 5
17 16 7
18 0 9
18 4 5
18 6 9
18 8 4
18 10 2
18 12 4
18 15 10
18 17 3
19 0 4
19 2 2
19 4 4
19 5 10
19 7 6
19 10 5
19 13 3
19 14 9
19 16 6
19 18 10
20 1 8
20 4 8
20 6 5
20 7 9
20 8 1
20 9 6
20 10 7
20 13 6
20 18 9
21 2 10
21 3 10
21 6 6
21 8 9
21 11 10
21 13 10
21 16 4
21 17 2
21 19 9
22 0 5
22 4 9
22 5 8
22 6 7
22 7 9
22 9 6
22 10 8
22 16 10
23 0 3
23 1 8
23 6 6
23 7 9
23 8 7
23 9 6
23 13 4
23 18 9
23 22 6
24 0 1
24 1 6
24 5 6
24 11 5
24 12 7
24 13 1
24 15 7
24 16 5
24 19 2
24 21 10
25 3 7
25 8 9
25 9 3
25 10 3
25 11 1
25 12 3
25 14 8
25 15 1
25 17 2
25 21 3
25 23 1
25 24 8
26 1 7
26 5 3
26 7 10
26 9 5
26 12 6
26 13 9
26 17 1
26 18 3
26 21 2
26 22 7
26 23 9
26 24 9
27 0 1
27 2 10
27 4 1
27 5 10
27 6 10
27 7 3
27 10 4
27 11 9
27 12 5
27 14 8
27 15 7
27 16 5
27 17 6
27 19 4
27 20 4
27 21 6
27 22 3
27 25 8
27 26 8
28 3 5
28 8 5
28 9 10
28 10 10
28 12 7
28 13 10
28 14 4
28 16 9
28 19 1
28 22 4
28 23 7
28 26 4
28 27 1
29 0 10
29 2 10
29 3 7
29 4 5
29 12 10
29 14 3
29 15 9
29 17 3
29 19 2
29 20 6
29 21 10
29 22 7
29 27 10
30 2 8
30 3 9
30 6 1
30 7 7
30 8 6
30 10 3
30 11 3
30 12 2
30 16 6
30 19 2
30 20 10
30 23 6
30 24 2
30 25 7
30 28 9
31 2 7
31 7 2
31 8 8
31 13 10
31 14 8
31 15 9
31 17 4
31 18 3
31 19 2
31 23 7
31 24 1
31 27 6
31 28 5
31 30 5
32 0 6
32 1 4
32 2 10
32 3 10
32 7 1
32 19 3
32 26 1
32 29 3
33 3 8
33 5 9
33 6 6
33 9 4
33 10 8
33 11 4
33 12 2
33 17 8
33 18 1
33 19 9
33 20 2
33 21 5
33 22 8
33 23 2
33 24 5
33 27 5
33 30 4
33 31 9
33 32 7
34 0 10
34 3 5
34 4 3
34 6 6
34 7 7
34 10 7
34 13 9
34 14 1
34 16 8
34 19 3
34 21 6
34 24 5
34 25 4
34 26 1
34 29 7
34 30 1
34 31 1
34 33 2
35 1 1
35 2 8
35 7 10
35 12 8
35 13 9
35 14 3
35 18 3
35 19 2
35 20 6
35 21 3
35 22 3
35 24 6
35 25 6
35 26 10
35 27 1
35 30 7
35 33 9
36 1 8
36 7 7
36 14 10
36 15 4
36 16 4
36 17 7
36 18 3
36 19 4
36 21 2
36 22 5
36 24 9
36 26 7
36 28 10
36 29 10
36 32 1
36 33 5
36 35 4
37 1 7
37 3 5
37 5 4
37 7 4
37 8 4
37 10 8
37 15 2
37 16 8
37 19 2
37 20 6
37 21 3
37 22 7
37 28 2
37 29 5
37 30 8
37 33 9
37 34 9
38 0 2
38 2 5
38 3 2
38 6 4
38 7 6
38 9 4
38 11 4
38 13 10
38 14 1
38 17 8
38 19 6
38 21 1
38 24 7
38 26 9
38 27 8
38 31 2
38 32 6
38 33 3
38 36 8
38 37 6
39 1 6
39 2 8
39 3 10
39 5 7
39 7 6
39 11 2
39 16 2
39 18 8
39 22 4
39 23 8
39 24 7
39 26 10
39 28 10
39 32 3
39 33 10
39 35 1
